(set-logic HORN)
(set-info :source |
  Benchmark: ./benchmarks/ocaml/safety/tacas2015//inc3.ml
  Generated by Refinement Caml
|)
(set-info :status unknown)
(declare-fun |$P7| (Int) Bool)
(declare-fun |$P9| (Int Int) Bool)
(declare-fun |$P0| (Int) Bool)
(declare-fun |$P1| (Int Int) Bool)
(declare-fun |$P4| (Int Int Int Int) Bool)
(declare-fun |$P3| (Int Int Int Int) Bool)
(declare-fun |$P2| (Int Int Int) Bool)
(declare-fun |$P13| (Int Int Int) Bool)
(declare-fun |$P12| (Int Int Int) Bool)
(declare-fun |$P5| (Int Int Int Int Int) Bool)
(declare-fun |$P8| (Int) Bool)
(declare-fun |$P6| (Int Int Int Int) Bool)
(declare-fun |$P10| (Int Int) Bool)
(declare-fun |$P11| (Int Int Int) Bool)
(assert (not (exists ((x0 Int)(x1 Int)(x3 Int)(x2 Int)) (and (|$P7| x2) (and (|$P9| x2 x3) (and (or (not (> x0 0)) (not (> x1 0))) (and (or (and (> x0 0) (<= 0 x3)) (and (not (> x0 0)) (not (<= 0 x3)))) (or (and (> x1 0) (< x3 x2)) (and (not (> x1 0)) (not (< x3 x2)))))))))))
(assert (forall ((x1 Int)(x2 Int)(x0 Int)) (=> (and (|$P7| x1) (and (|$P9| x1 x2) (and (and (<= 0 x2) (<= (+ 1 x2) x1)) (= x0 0)))) (|$P11| x1 x2 x0))))
(assert (forall ((x0 Int)(x1 Int)(x4 Int)(x2 Int)(x3 Int)) (=> (and (|$P0| x0) (and (|$P1| x0 x1) (and (|$P4| x0 x1 x2 x3) (and (|$P0| x4) (= x4 x0))))) (|$P2| x0 x1 x4))))
(assert (forall ((x4 Int)(x3 Int)(x1 Int)(x2 Int)(x0 Int)(x5 Int)) (=> (and (|$P0| x4) (and (|$P1| x4 x3) (and (|$P4| x4 x3 x1 x2) (|$P3| x4 x3 x4 x5)))) (|$P5| x4 x3 x1 x2 x0))))
(assert (forall ((x1 Int)(x2 Int)(x3 Int)(x0 Int)) (=> (and (|$P8| x1) (and (|$P13| x1 x2 x3) (>= x3 x1))) (|$P6| x1 x2 x3 x0))))
(assert (forall ((x0 Int)(x2 Int)(x1 Int)) (=> (and (|$P8| x0) (and (|$P13| x0 x1 x2) (<= (+ 1 x2) x0))) (|$P10| x0 x2))))
(assert (forall ((x4 Int)(x2 Int)(x0 Int)(x1 Int)(x3 Int)) (=> (and (|$P8| x2) (and (|$P12| x2 x4 x1) (and (|$P13| x2 x3 x4) (and (<= (+ 1 x4) x2) (= x0 (+ 1 x1)))))) (|$P0| x4))))
(assert (forall ((x2 Int)(x4 Int)(x0 Int)(x3 Int)(x1 Int)) (=> (and (|$P13| x4 x1 x2) (and (|$P12| x4 x2 x3) (and (|$P8| x4) (and (<= (+ 1 x2) x4) (= x0 (+ 1 x3)))))) (|$P1| x2 x4))))
(assert (forall ((x4 Int)(x5 Int)(x3 Int)(x0 Int)(x2 Int)(x1 Int)) (=> (and (|$P8| x4) (and (|$P13| x4 x1 x3) (and (|$P12| x4 x3 x2) (and (|$P2| x3 x4 x5) (and (<= (+ 1 x3) x4) (= x0 (+ 1 x2))))))) (|$P10| x4 x5))))
(assert (forall ((x3 Int)(x4 Int)(x5 Int)(x6 Int)(x0 Int)(x2 Int)(x1 Int)) (=> (and (|$P8| x4) (and (|$P13| x4 x1 x3) (and (|$P12| x4 x3 x2) (and (|$P2| x3 x4 x5) (and (|$P12| x4 x5 x6) (and (<= (+ 1 x3) x4) (= x0 (+ 1 x2)))))))) (|$P3| x3 x4 x5 x6))))
(assert (forall ((x3 Int)(x2 Int)(x1 Int)(x0 Int)(x4 Int)) (=> (and (|$P8| x2) (and (|$P13| x2 x1 x3) (and (|$P12| x2 x3 x4) (and (<= (+ 1 x3) x2) (= x0 (+ 1 x4)))))) (|$P4| x3 x2 x1 x0))))
(assert (forall ((x6 Int)(x2 Int)(x4 Int)(x1 Int)(x0 Int)(x3 Int)(x5 Int)) (=> (and (|$P13| x6 x3 x2) (and (|$P12| x6 x2 x1) (and (|$P5| x2 x6 x3 x4 x5) (and (|$P8| x6) (and (<= (+ 1 x2) x6) (and (= x4 (+ 1 x1)) (= x0 (+ 1 x2)))))))) (|$P8| x6))))
(assert (forall ((x6 Int)(x7 Int)(x2 Int)(x4 Int)(x1 Int)(x0 Int)(x3 Int)(x5 Int)) (=> (and (|$P13| x6 x3 x2) (and (|$P12| x6 x2 x1) (and (|$P5| x2 x6 x3 x4 x5) (and (|$P8| x6) (and (|$P10| x6 x7) (and (<= (+ 1 x2) x6) (and (= x4 (+ 1 x1)) (= x0 (+ 1 x2))))))))) (|$P10| x6 x7))))
(assert (forall ((x6 Int)(x7 Int)(x8 Int)(x2 Int)(x4 Int)(x1 Int)(x0 Int)(x3 Int)(x5 Int)) (=> (and (|$P13| x6 x3 x2) (and (|$P12| x6 x2 x1) (and (|$P5| x2 x6 x3 x4 x5) (and (|$P8| x6) (and (|$P10| x6 x7) (and (|$P12| x6 x7 x8) (and (<= (+ 1 x2) x6) (and (= x4 (+ 1 x1)) (= x0 (+ 1 x2)))))))))) (|$P12| x6 x7 x8))))
(assert (forall ((x7 Int)(x0 Int)(x1 Int)(x3 Int)(x5 Int)(x2 Int)(x4 Int)(x6 Int)) (=> (and (|$P13| x7 x4 x3) (and (|$P12| x7 x3 x2) (and (|$P5| x3 x7 x4 x5 x6) (and (|$P8| x7) (and (<= (+ 1 x3) x7) (and (= x5 (+ 1 x2)) (= x1 (+ 1 x3)))))))) (|$P13| x7 x0 x1))))
(assert (forall ((x5 Int)(x2 Int)(x1 Int)(x8 Int)(x3 Int)(x0 Int)(x7 Int)(x4 Int)(x6 Int)) (=> (and (|$P13| x5 x2 x1) (and (|$P12| x5 x1 x0) (and (|$P5| x1 x5 x2 x3 x4) (and (|$P8| x5) (and (|$P6| x5 x6 x7 x8) (and (<= (+ 1 x1) x5) (and (= x3 (+ 1 x0)) (= x7 (+ 1 x1))))))))) (|$P6| x5 x2 x1 x8))))
(assert (forall ((x0 Int)) (=> (>= x0 1) (|$P7| x0))))
(assert (forall ((x0 Int)) (=> (>= x0 1) (|$P8| x0))))
(assert (forall ((x0 Int)(x1 Int)) (=> (and (|$P10| x0 x1) (>= x0 1)) (|$P9| x0 x1))))
(assert (forall ((x0 Int)(x1 Int)(x2 Int)) (=> (and (|$P10| x0 x1) (and (|$P11| x0 x1 x2) (>= x0 1))) (|$P12| x0 x1 x2))))
(assert (forall ((x1 Int)(x0 Int)(x2 Int)) (=> (and (>= x1 1) (= x2 0)) (|$P13| x1 x0 x2))))
(check-sat)
